c description: Graph 4-Colorability of graph: 
c generator: CNFgen (0.9.0)
c copyright: (C) 2012-2020 Massimo Lauria <massimo.lauria@uniroma1.it>
c url: https://massimolauria.net/cnfgen
c
p cnf 80 460
1 2 3 4 0
-1 -2 0
-1 -3 0
-1 -4 0
-2 -3 0
-2 -4 0
-3 -4 0
5 6 7 8 0
-5 -6 0
-5 -7 0
-5 -8 0
-6 -7 0
-6 -8 0
-7 -8 0
9 10 11 12 0
-9 -10 0
-9 -11 0
-9 -12 0
-10 -11 0
-10 -12 0
-11 -12 0
13 14 15 16 0
-13 -14 0
-13 -15 0
-13 -16 0
-14 -15 0
-14 -16 0
-15 -16 0
17 18 19 20 0
-17 -18 0
-17 -19 0
-17 -20 0
-18 -19 0
-18 -20 0
-19 -20 0
21 22 23 24 0
-21 -22 0
-21 -23 0
-21 -24 0
-22 -23 0
-22 -24 0
-23 -24 0
25 26 27 28 0
-25 -26 0
-25 -27 0
-25 -28 0
-26 -27 0
-26 -28 0
-27 -28 0
29 30 31 32 0
-29 -30 0
-29 -31 0
-29 -32 0
-30 -31 0
-30 -32 0
-31 -32 0
33 34 35 36 0
-33 -34 0
-33 -35 0
-33 -36 0
-34 -35 0
-34 -36 0
-35 -36 0
37 38 39 40 0
-37 -38 0
-37 -39 0
-37 -40 0
-38 -39 0
-38 -40 0
-39 -40 0
41 42 43 44 0
-41 -42 0
-41 -43 0
-41 -44 0
-42 -43 0
-42 -44 0
-43 -44 0
45 46 47 48 0
-45 -46 0
-45 -47 0
-45 -48 0
-46 -47 0
-46 -48 0
-47 -48 0
49 50 51 52 0
-49 -50 0
-49 -51 0
-49 -52 0
-50 -51 0
-50 -52 0
-51 -52 0
53 54 55 56 0
-53 -54 0
-53 -55 0
-53 -56 0
-54 -55 0
-54 -56 0
-55 -56 0
57 58 59 60 0
-57 -58 0
-57 -59 0
-57 -60 0
-58 -59 0
-58 -60 0
-59 -60 0
61 62 63 64 0
-61 -62 0
-61 -63 0
-61 -64 0
-62 -63 0
-62 -64 0
-63 -64 0
65 66 67 68 0
-65 -66 0
-65 -67 0
-65 -68 0
-66 -67 0
-66 -68 0
-67 -68 0
69 70 71 72 0
-69 -70 0
-69 -71 0
-69 -72 0
-70 -71 0
-70 -72 0
-71 -72 0
73 74 75 76 0
-73 -74 0
-73 -75 0
-73 -76 0
-74 -75 0
-74 -76 0
-75 -76 0
77 78 79 80 0
-77 -78 0
-77 -79 0
-77 -80 0
-78 -79 0
-78 -80 0
-79 -80 0
-1 -21 0
-2 -22 0
-3 -23 0
-4 -24 0
-1 -25 0
-2 -26 0
-3 -27 0
-4 -28 0
-1 -41 0
-2 -42 0
-3 -43 0
-4 -44 0
-1 -53 0
-2 -54 0
-3 -55 0
-4 -56 0
-1 -65 0
-2 -66 0
-3 -67 0
-4 -68 0
-1 -73 0
-2 -74 0
-3 -75 0
-4 -76 0
-5 -13 0
-6 -14 0
-7 -15 0
-8 -16 0
-5 -25 0
-6 -26 0
-7 -27 0
-8 -28 0
-5 -37 0
-6 -38 0
-7 -39 0
-8 -40 0
-5 -53 0
-6 -54 0
-7 -55 0
-8 -56 0
-5 -65 0
-6 -66 0
-7 -67 0
-8 -68 0
-5 -77 0
-6 -78 0
-7 -79 0
-8 -80 0
-9 -13 0
-10 -14 0
-11 -15 0
-12 -16 0
-9 -17 0
-10 -18 0
-11 -19 0
-12 -20 0
-9 -37 0
-10 -38 0
-11 -39 0
-12 -40 0
-9 -41 0
-10 -42 0
-11 -43 0
-12 -44 0
-9 -49 0
-10 -50 0
-11 -51 0
-12 -52 0
-9 -53 0
-10 -54 0
-11 -55 0
-12 -56 0
-9 -65 0
-10 -66 0
-11 -67 0
-12 -68 0
-9 -73 0
-10 -74 0
-11 -75 0
-12 -76 0
-9 -77 0
-10 -78 0
-11 -79 0
-12 -80 0
-13 -17 0
-14 -18 0
-15 -19 0
-16 -20 0
-13 -29 0
-14 -30 0
-15 -31 0
-16 -32 0
-13 -41 0
-14 -42 0
-15 -43 0
-16 -44 0
-13 -45 0
-14 -46 0
-15 -47 0
-16 -48 0
-13 -49 0
-14 -50 0
-15 -51 0
-16 -52 0
-13 -61 0
-14 -62 0
-15 -63 0
-16 -64 0
-17 -21 0
-18 -22 0
-19 -23 0
-20 -24 0
-17 -49 0
-18 -50 0
-19 -51 0
-20 -52 0
-17 -61 0
-18 -62 0
-19 -63 0
-20 -64 0
-17 -69 0
-18 -70 0
-19 -71 0
-20 -72 0
-17 -73 0
-18 -74 0
-19 -75 0
-20 -76 0
-21 -25 0
-22 -26 0
-23 -27 0
-24 -28 0
-21 -29 0
-22 -30 0
-23 -31 0
-24 -32 0
-21 -33 0
-22 -34 0
-23 -35 0
-24 -36 0
-21 -37 0
-22 -38 0
-23 -39 0
-24 -40 0
-21 -41 0
-22 -42 0
-23 -43 0
-24 -44 0
-21 -45 0
-22 -46 0
-23 -47 0
-24 -48 0
-21 -53 0
-22 -54 0
-23 -55 0
-24 -56 0
-21 -61 0
-22 -62 0
-23 -63 0
-24 -64 0
-21 -77 0
-22 -78 0
-23 -79 0
-24 -80 0
-25 -29 0
-26 -30 0
-27 -31 0
-28 -32 0
-25 -33 0
-26 -34 0
-27 -35 0
-28 -36 0
-25 -61 0
-26 -62 0
-27 -63 0
-28 -64 0
-25 -65 0
-26 -66 0
-27 -67 0
-28 -68 0
-29 -41 0
-30 -42 0
-31 -43 0
-32 -44 0
-29 -53 0
-30 -54 0
-31 -55 0
-32 -56 0
-29 -77 0
-30 -78 0
-31 -79 0
-32 -80 0
-33 -49 0
-34 -50 0
-35 -51 0
-36 -52 0
-33 -53 0
-34 -54 0
-35 -55 0
-36 -56 0
-33 -61 0
-34 -62 0
-35 -63 0
-36 -64 0
-33 -69 0
-34 -70 0
-35 -71 0
-36 -72 0
-33 -73 0
-34 -74 0
-35 -75 0
-36 -76 0
-33 -77 0
-34 -78 0
-35 -79 0
-36 -80 0
-37 -45 0
-38 -46 0
-39 -47 0
-40 -48 0
-37 -65 0
-38 -66 0
-39 -67 0
-40 -68 0
-41 -45 0
-42 -46 0
-43 -47 0
-44 -48 0
-41 -49 0
-42 -50 0
-43 -51 0
-44 -52 0
-41 -61 0
-42 -62 0
-43 -63 0
-44 -64 0
-41 -69 0
-42 -70 0
-43 -71 0
-44 -72 0
-45 -53 0
-46 -54 0
-47 -55 0
-48 -56 0
-45 -57 0
-46 -58 0
-47 -59 0
-48 -60 0
-45 -61 0
-46 -62 0
-47 -63 0
-48 -64 0
-45 -69 0
-46 -70 0
-47 -71 0
-48 -72 0
-45 -77 0
-46 -78 0
-47 -79 0
-48 -80 0
-49 -57 0
-50 -58 0
-51 -59 0
-52 -60 0
-49 -65 0
-50 -66 0
-51 -67 0
-52 -68 0
-49 -69 0
-50 -70 0
-51 -71 0
-52 -72 0
-49 -77 0
-50 -78 0
-51 -79 0
-52 -80 0
-53 -61 0
-54 -62 0
-55 -63 0
-56 -64 0
-53 -65 0
-54 -66 0
-55 -67 0
-56 -68 0
-53 -69 0
-54 -70 0
-55 -71 0
-56 -72 0
-53 -73 0
-54 -74 0
-55 -75 0
-56 -76 0
-53 -77 0
-54 -78 0
-55 -79 0
-56 -80 0
-57 -61 0
-58 -62 0
-59 -63 0
-60 -64 0
-57 -69 0
-58 -70 0
-59 -71 0
-60 -72 0
-57 -73 0
-58 -74 0
-59 -75 0
-60 -76 0
-61 -77 0
-62 -78 0
-63 -79 0
-64 -80 0
-65 -77 0
-66 -78 0
-67 -79 0
-68 -80 0
-73 -77 0
-74 -78 0
-75 -79 0
-76 -80 0